p cnf 20 20
15 -7 -4 0
9 5 -12 0
-17 8 19 0
12 1 3 0
-14 13 6 0
-7 -16 -5 0
11 18 -17 0
18 13 16 0
-16 13 7 0
-16 19 -4 0
1 -6 -7 0
5 -9 -19 0
1 11 14 0
-3 -4 13 0
7 -4 -5 0
20 9 11 0
-2 9 14 0
-4 3 -8 0
-14 -16 -18 0
2 5 16 0
